43
49
56
20
16
13
0
15
12
94
0
154
25
119
36
0
39
12
32
0
15
112
14
16
58
42
0
0
91
85
27
73
0
12
41
10
53
0
113
137
59
25
0
62
68
29
0
73
128
86
93
14
0
32
12
145
12
0
34
15
89
25
14
0
0
24
44
14
67
11
0
0
53
49
0
61
145
28
0
67
0
52
54
21
16
11
27
22
0
49
0
35
0
64
34
25
90
40
0
0
